experiment/data/lkh-res/Vrp-Set-A-n45/Vrp-Set-A-n45-lkh/1.lkh1.vrp
NAME : 1
COMMENT : CVRP Instance
TYPE : CVRP
DIMENSION : 45
EDGE_WEIGHT_TYPE : EUC_2D
CAPACITY : 100
NODE_COORD_SECTION
1	6100	9900
2	9500	700
3	4500	8700
4	1500	4700
5	3900	7500
6	5500	2300
7	2900	7100
8	8700	7900
9	7500	6300
10	6500	6100
11	7300	3500
12	1700	3500
13	3900	9900
14	7500	7700
15	4900	3700
16	8500	3100
17	8900	7100
18	8900	4300
19	7900	8100
20	4500	500
21	9300	6900
22	4900	6900
23	6300	2500
24	9300	3300
25	3900	4500
26	8900	3300
27	4700	7700
28	2900	1900
29	1300	6500
30	3300	900
31	6300	900
32	4100	1300
33	6700	7500
34	4100	2700
35	4900	7700
36	5700	8100
37	4500	500
38	8300	700
39	8100	6100
40	5700	8100
41	9300	8900
42	1700	1300
43	8900	2700
44	700	2500
45	3500	3500
DEMAND_SECTION
1	0
2	14
3	1
4	16
5	23
6	12
7	6
8	5
9	1
10	13
11	20
12	14
13	18
14	7
15	8
16	21
17	8
18	24
19	20
20	19
21	13
22	3
23	26
24	17
25	22
26	8
27	16
28	20
29	12
30	22
31	20
32	12
33	14
34	25
35	17
36	19
37	20
38	15
39	2
40	9
41	10
42	6
43	11
44	21
45	24
DEPOT_SECTION
1
-1
EOF
