experiment/data/lkh-res/Vrp-Set-A-n45/Vrp-Set-A-n45-lkh/1.lkh1.tour
NAME : 1.114681.tour
COMMENT : Length = 114681
COMMENT : Found by LKH-3 [Keld Helsgaun] Tue Apr  9 00:43:04 2024
TYPE : TOUR
DIMENSION : 51
TOUR_SECTION
1
22
28
42
44
12
4
29
7
3
46
9
43
2
38
31
6
23
51
19
8
17
21
41
47
32
20
37
30
34
50
11
16
26
24
18
39
14
49
35
25
45
15
10
33
48
13
5
27
40
36
-1
EOF
