experiment/data/lkh-res/Vrp-Set-A-n45/Vrp-Set-A-n45-lkh/1.lkh1.log
PARAMETER_FILE = baseline_results/cvrp_lkh/Vrp-Set-A-n45/Vrp-Set-A-n45-lkh/1.lkh1.par
Reading PROBLEM_FILE: "baseline_results/cvrp_lkh/Vrp-Set-A-n45/Vrp-Set-A-n45-lkh/1.lkh1.vrp" ... done
ASCENT_CANDIDATES = 44
BACKBONE_TRIALS = 0
BACKTRACKING = NO
# BWTSP =
# CANDIDATE_FILE =
CANDIDATE_SET_TYPE = ALPHA
# DISTANCE =
DEPOT = 1
# EDGE_FILE =
EXCESS = 0.0222222
EXTERNAL_SALESMEN = 0
EXTRA_CANDIDATES = 0 
EXTRA_CANDIDATE_SET_TYPE = QUADRANT
GAIN23 = NO
GAIN_CRITERION = YES
INITIAL_PERIOD = 100
INITIAL_STEP_SIZE = 1
INITIAL_TOUR_ALGORITHM = WALK
# INITIAL_TOUR_FILE = 
INITIAL_TOUR_FRACTION = 1.000
# INPUT_TOUR_FILE = 
KICK_TYPE = 4
KICKS = 1
# MAX_BREADTH =
MAKESPAN = NO
MAX_CANDIDATES = 5 
MAX_SWAPS = 0
MAX_TRIALS = 10000
# MERGE_TOUR_FILE =
MOVE_TYPE = 5 SPECIAL
MTSP_MIN_SIZE = 1
MTSP_MAX_SIZE = 44
# MTSP_SOLUTION_FILE = 
# NONSEQUENTIAL_MOVE_TYPE = 5
# OPTIMUM =
OUTPUT_TOUR_FILE = baseline_results/cvrp_lkh/Vrp-Set-A-n45/Vrp-Set-A-n45-lkh/1.lkh1.tour
PATCHING_A = 1 
PATCHING_C = 0 
# PI_FILE = 
POPMUSIC_INITIAL_TOUR = NO
POPMUSIC_MAX_NEIGHBORS = 5
POPMUSIC_SAMPLE_SIZE = 10
POPMUSIC_SOLUTIONS = 50
POPMUSIC_TRIALS = 1
POPULATION_SIZE = 10
PRECISION = 100
PROBLEM_FILE = baseline_results/cvrp_lkh/Vrp-Set-A-n45/Vrp-Set-A-n45-lkh/1.lkh1.vrp
RECOMBINATION = IPT
RESTRICTED_SEARCH = YES
RUNS = 1
SALESMEN = 7
SCALE = 1
SEED = 1234
# SINTEF_SOLUTION_FILE = 
STOP_AT_OPTIMUM = YES
SUBGRADIENT = YES
# SUBPROBLEM_SIZE =
# SUBPROBLEM_TOUR_FILE = 
SUBSEQUENT_MOVE_TYPE = 5 SPECIAL
SUBSEQUENT_PATCHING = YES
# TIME_LIMIT =
# TOTAL_TIME_LIMIT =
# TOUR_FILE = 
TRACE_LEVEL = 1
VEHICLES = 7

Lower bound = 74378.5, Ascent time = 0.01 sec.
Cand.min = 5, Cand.avg = 5.0, Cand.max = 5
Preprocessing time = 0.01 sec.
* 1: Cost = 0_117937, Time = 0.01 sec. 
Writing OUTPUT_TOUR_FILE: "baseline_results/cvrp_lkh/Vrp-Set-A-n45/Vrp-Set-A-n45-lkh/1.lkh1.tour" ... done
* 2: Cost = 0_117199, Time = 0.01 sec. 
Writing OUTPUT_TOUR_FILE: "baseline_results/cvrp_lkh/Vrp-Set-A-n45/Vrp-Set-A-n45-lkh/1.lkh1.tour" ... done
* 3: Cost = 0_116124, Time = 0.02 sec. 
Writing OUTPUT_TOUR_FILE: "baseline_results/cvrp_lkh/Vrp-Set-A-n45/Vrp-Set-A-n45-lkh/1.lkh1.tour" ... done
* 4: Cost = 0_115899, Time = 0.02 sec. 
Writing OUTPUT_TOUR_FILE: "baseline_results/cvrp_lkh/Vrp-Set-A-n45/Vrp-Set-A-n45-lkh/1.lkh1.tour" ... done
* 14: Cost = 0_115445, Time = 0.05 sec. 
Writing OUTPUT_TOUR_FILE: "baseline_results/cvrp_lkh/Vrp-Set-A-n45/Vrp-Set-A-n45-lkh/1.lkh1.tour" ... done
* 33: Cost = 0_115384, Time = 0.12 sec. 
Writing OUTPUT_TOUR_FILE: "baseline_results/cvrp_lkh/Vrp-Set-A-n45/Vrp-Set-A-n45-lkh/1.lkh1.tour" ... done
* 58: Cost = 0_115325, Time = 0.19 sec. 
Writing OUTPUT_TOUR_FILE: "baseline_results/cvrp_lkh/Vrp-Set-A-n45/Vrp-Set-A-n45-lkh/1.lkh1.tour" ... done
* 84: Cost = 0_114681, Time = 0.26 sec. 
Writing OUTPUT_TOUR_FILE: "baseline_results/cvrp_lkh/Vrp-Set-A-n45/Vrp-Set-A-n45-lkh/1.lkh1.tour" ... done
Population:
  1: 0_114681
Run 1: Cost = 0_114681, Time = 28.84 sec. 

Successes/Runs = 0/1 
Cost.min = 114681, Cost.avg = 114681.00, Cost.max = 114681
Gap.min = 0.0000%, Gap.avg = 0.0000%, Gap.max = 0.0000%
Penalty.min = 0, Penalty.avg = 0.00, Penalty.max = 0
Trials.min = 10000, Trials.avg = 10000.0, Trials.max = 10000
Time.min = 28.84 sec., Time.avg = 28.84 sec., Time.max = 28.84 sec.
Time.total = 28.85 sec.
  Size.min = 5, Size.max = 9, Penalty = 0
  Cost.min = 8346, Cost.max = 22864, Cost.sum = 114681
Best CVRP solution:
  Cost = 0_114681

